(set-logic QF_UF)
(declare-fun A0 () Bool)
(declare-fun A1 () Bool)
(declare-fun A2 () Bool)
(declare-fun A3 () Bool)
(declare-fun A4 () Bool)
(declare-fun A5 () Bool)
(declare-fun A6 () Bool)
(declare-fun A7 () Bool)
(declare-fun A8 () Bool)
(declare-fun A9 () Bool)
(declare-fun A10 () Bool)
(declare-fun A12 () Bool)
(declare-fun A13 () Bool)
(declare-fun A14 () Bool)
(declare-fun A16 () Bool)
(declare-fun A17 () Bool)
(declare-fun A18 () Bool)
(declare-fun A19 () Bool)
(declare-fun A20 () Bool)
(declare-fun A21 () Bool)
(declare-fun A22 () Bool)
(declare-fun A23 () Bool)
(declare-fun A24 () Bool)
(assert (let ((.def_0 (not A23))) (let ((.def_1 (or .def_0 A2))) (let ((.def_2 (not .def_1))) (let ((.def_3 (or A10 A4))) (let ((.def_4 (not .def_3))) (let ((.def_5 (or .def_4 .def_2))) (let ((.def_6 (not A22))) (let ((.def_7 (or .def_6 A10))) (let ((.def_8 (not .def_7))) (let ((.def_9 (and .def_0 A3))) (let ((.def_10 (not .def_9))) (let ((.def_11 (or .def_10 .def_8))) (let ((.def_12 (and .def_11 .def_5))) (let ((.def_13 (not A10))) (let ((.def_14 (or A2 .def_13))) (let ((.def_15 (or A24 A19))) (let ((.def_16 (not .def_15))) (let ((.def_17 (or .def_16 .def_14))) (let ((.def_18 (not A18))) (let ((.def_19 (or A13 .def_18))) (let ((.def_20 (not .def_19))) (let ((.def_21 (or A24 A7))) (let ((.def_22 (not .def_21))) (let ((.def_23 (or .def_22 .def_20))) (let ((.def_24 (or .def_23 .def_17))) (let ((.def_25 (not .def_24))) (let ((.def_26 (or .def_25 .def_12))) (let ((.def_27 (not A2))) (let ((.def_28 (= .def_18 .def_27))) (let ((.def_29 (and A23 A2))) (let ((.def_30 (not .def_29))) (let ((.def_31 (or .def_30 .def_28))) (let ((.def_32 (not A7))) (let ((.def_33 (or A2 .def_32))) (let ((.def_34 (not A13))) (let ((.def_35 (not A20))) (let ((.def_36 (or .def_35 .def_34))) (let ((.def_37 (not .def_36))) (let ((.def_38 (or .def_37 .def_33))) (let ((.def_39 (or .def_38 .def_31))) (let ((.def_40 (and A20 A2))) (let ((.def_41 (not A17))) (let ((.def_42 (and .def_41 A24))) (let ((.def_43 (and .def_42 .def_40))) (let ((.def_44 (not .def_43))) (let ((.def_45 (not A14))) (let ((.def_46 (not A4))) (let ((.def_47 (and .def_46 .def_45))) (let ((.def_48 (not .def_47))) (let ((.def_49 (or .def_0 .def_0))) (let ((.def_50 (not .def_49))) (let ((.def_51 (and .def_50 .def_48))) (let ((.def_52 (not .def_51))) (let ((.def_53 (and .def_52 .def_44))) (let ((.def_54 (not .def_53))) (let ((.def_55 (or .def_54 .def_39))) (let ((.def_56 (and .def_55 .def_26))) (let ((.def_57 (not .def_56))) (let ((.def_58 (and A10 A24))) (let ((.def_59 (and .def_6 A24))) (let ((.def_60 (not .def_59))) (let ((.def_61 (or .def_60 .def_58))) (let ((.def_62 (and A6 .def_41))) (let ((.def_63 (not .def_62))) (let ((.def_64 (and .def_27 A12))) (let ((.def_65 (not .def_64))) (let ((.def_66 (and .def_65 .def_63))) (let ((.def_67 (or .def_66 .def_61))) (let ((.def_68 (not A9))) (let ((.def_69 (or .def_68 A18))) (let ((.def_70 (not .def_69))) (let ((.def_71 (not A1))) (let ((.def_72 (or .def_71 A23))) (let ((.def_73 (not .def_72))) (let ((.def_74 (and .def_73 .def_70))) (let ((.def_75 (not .def_74))) (let ((.def_76 (or .def_46 .def_41))) (let ((.def_77 (and A17 A8))) (let ((.def_78 (not .def_77))) (let ((.def_79 (or .def_78 .def_76))) (let ((.def_80 (not .def_79))) (let ((.def_81 (or .def_80 .def_75))) (let ((.def_82 (not .def_81))) (let ((.def_83 (and .def_82 .def_67))) (let ((.def_84 (= A19 .def_32))) (let ((.def_85 (or A1 .def_32))) (let ((.def_86 (or .def_85 .def_84))) (let ((.def_87 (not .def_86))) (let ((.def_88 (and A21 A7))) (let ((.def_89 (not .def_88))) (let ((.def_90 (or .def_41 A22))) (let ((.def_91 (not .def_90))) (let ((.def_92 (and .def_91 .def_89))) (let ((.def_93 (not .def_92))) (let ((.def_94 (or .def_93 .def_87))) (let ((.def_95 (not .def_94))) (let ((.def_96 (and A9 A5))) (let ((.def_97 (not A16))) (let ((.def_98 (and .def_97 A0))) (let ((.def_99 (or .def_98 .def_96))) (let ((.def_100 (not A6))) (let ((.def_101 (or .def_100 A23))) (let ((.def_102 (not .def_101))) (let ((.def_103 (and .def_6 A10))) (let ((.def_104 (and .def_103 .def_102))) (let ((.def_105 (not .def_104))) (let ((.def_106 (or .def_105 .def_99))) (let ((.def_107 (and .def_106 .def_95))) (let ((.def_108 (not .def_107))) (let ((.def_109 (or .def_108 .def_83))) (let ((.def_110 (or .def_109 .def_57))) (let ((.def_111 (not .def_110))) .def_111)))))))))))))))))))))))))))))))))))))))))))))))))))))))))))))))))))))))))))))))))))))))))))))))))))))))))))))))))
(check-sat)
